Version identifier: 20.1.0.0 | 2020-11-10 | 9bedb6d68
Tried aggregator 3 times.
MIP Presolve eliminated 1266 rows and 636 columns.
MIP Presolve modified 3172 coefficients.
Aggregator did 136 substitutions.
Reduced MIP has 1807 rows, 1443 columns, and 5914 nonzeros.
Reduced MIP has 293 binaries, 1150 generals, 0 SOSs, and 0 indicators.
Presolve time = 0.02 sec. (8.67 ticks)
Probing fixed 40 vars, tightened 438 bounds.
Probing time = 0.00 sec. (1.16 ticks)
Tried aggregator 2 times.
Detecting symmetries...
MIP Presolve eliminated 756 rows and 82 columns.
MIP Presolve modified 185 coefficients.
Aggregator did 28 substitutions.
Reduced MIP has 1023 rows, 1333 columns, and 3322 nonzeros.
Reduced MIP has 427 binaries, 906 generals, 0 SOSs, and 0 indicators.
Presolve time = 0.01 sec. (4.94 ticks)
Probing time = 0.00 sec. (0.28 ticks)
Clique table members: 45.
MIP emphasis: balance optimality and feasibility.
MIP search method: dynamic search.
Parallel mode: deterministic, using up to 24 threads.
Root relaxation solution time = 0.01 sec. (2.93 ticks)

        Nodes                                         Cuts/
   Node  Left     Objective  IInf  Best Integer    Best Bound    ItCnt     Gap

*     0+    0                           52.0000        0.0000           100.00%
      0     0        0.0000    51       52.0000        0.0000      333  100.00%
      0     0        0.0179   265       52.0000     Cuts: 189      675   99.97%
*     0+    0                           23.0000        0.0179            99.92%
      0     0        1.0000   289       23.0000     Cuts: 177      869   95.65%
      0     0        1.0000   325       23.0000     Cuts: 149     1009   95.65%
*     0+    0                           12.0000        1.0000            91.67%
      0     0        cutoff             12.0000       12.0000     1381    0.00%
Elapsed time = 0.74 sec. (114.71 ticks, tree = 0.01 MB, solutions = 3)

Cover cuts applied:  6
Implied bound cuts applied:  58
Flow cuts applied:  6
Mixed integer rounding cuts applied:  24
Zero-half cuts applied:  153
Lift and project cuts applied:  4
Gomory fractional cuts applied:  14

Root node processing (before b&c):
  Real time             =    0.74 sec. (114.83 ticks)
Parallel b&c, 24 threads:
  Real time             =    0.00 sec. (0.00 ticks)
  Sync time (average)   =    0.00 sec.
  Wait time (average)   =    0.00 sec.
                          ------------
Total (root+branch&cut) =    0.74 sec. (114.83 ticks)

Solution status = Optimal
Solution LB = 12
Solution UB = 12
Runtime = 0.74935 seconds
	Command being timed: "/home/min/git_repos/CS598MEBProject/CNT-ILP/build/cnt -s 2 ./output/k8_n20/simC_c1_k8_n20_u3_s1_del04.input-right.cnp"
	User time (seconds): 10.44
	System time (seconds): 0.09
	Percent of CPU this job got: 1329%
	Elapsed (wall clock) time (h:mm:ss or m:ss): 0:00.79
	Average shared text size (kbytes): 0
	Average unshared data size (kbytes): 0
	Average stack size (kbytes): 0
	Average total size (kbytes): 0
	Maximum resident set size (kbytes): 107284
	Average resident set size (kbytes): 0
	Major (requiring I/O) page faults: 0
	Minor (reclaiming a frame) page faults: 24083
	Voluntary context switches: 5300
	Involuntary context switches: 1379
	Swaps: 0
	File system inputs: 0
	File system outputs: 16
	Socket messages sent: 0
	Socket messages received: 0
	Signals delivered: 0
	Page size (bytes): 4096
	Exit status: 0
